100 8
99 458
666 540
755 543
458 294
313 661
234 395
764 116
194 228
222 441
660 156
452 963
198 815
447 345
200 329
548 256
617 601
126 622
705 456
198 488
679 520
807 798
716 502
202 670
796 511
193 108
765 565
914 180
430 973
612 600
173 493
905 97
140 607
68 494
934 428
439 851
172 741
197 102
317 812
809 883
777 603
639 562
375 816
845 436
713 733
225 649
463 445
598 682
188 196
714 488
509 276
212 700
271 700
949 535
242 723
816 515
691 540
753 158
648 688
668 717
614 578
415 355
916 931
952 852
608 480
108 794
132 644
149 206
750 213
808 661
440 330
199 225
760 216
245 545
624 162
704 397
744 412
792 676
625 416
157 71
594 186
231 417
603 248
849 434
740 61
819 229
582 317
621 680
617 440
737 709
488 777
932 201
758 572
89 748
309 694
608 550
575 652
561 267
154 579
267 109
309 619
